p tw 70 415
0 1
0 2
0 3
0 4
0 5
0 16
0 22
0 27
0 36
0 37
0 25
0 33
0 44
0 45
0 49
0 26
0 32
0 41
0 65
1 2
1 3
1 4
1 5
1 8
1 12
1 31
1 44
1 48
1 13
1 19
1 24
1 55
1 67
2 3
2 4
2 5
2 6
2 7
2 8
2 9
2 13
2 25
2 39
2 50
2 51
2 36
2 42
2 52
2 53
2 19
2 28
2 32
2 33
2 61
2 27
2 30
2 49
2 66
2 29
2 40
3 4
3 5
3 9
3 24
3 37
3 38
3 39
4 5
5 6
5 7
5 8
5 9
6 7
6 8
6 9
6 58
6 59
6 60
6 61
6 62
6 29
6 40
6 50
6 66
7 8
7 9
8 9
8 12
8 31
8 44
8 48
8 17
8 21
8 26
8 47
8 66
9 24
9 37
9 38
9 39
9 11
9 15
9 52
9 54
9 55
10 11
10 12
10 13
10 14
10 15
10 16
10 17
10 18
10 19
10 32
10 44
10 57
10 59
10 68
11 12
11 13
11 14
11 15
11 52
11 54
11 55
12 13
12 14
12 15
12 33
12 35
12 40
12 41
12 42
12 31
12 44
12 48
12 22
12 47
12 53
12 63
13 14
13 15
13 26
13 27
13 28
13 29
13 30
13 31
13 32
13 33
13 34
13 35
13 25
13 39
13 50
13 51
13 36
13 42
13 52
13 53
13 19
13 24
13 55
13 67
14 15
14 18
14 21
14 56
14 57
14 58
14 44
14 53
14 64
15 29
15 41
15 43
15 44
15 45
15 52
15 54
15 55
16 17
16 18
16 19
16 22
16 27
16 36
16 37
16 21
16 35
16 46
16 47
16 48
17 18
17 19
17 21
17 26
17 47
17 66
18 19
18 21
18 56
18 57
18 58
19 24
19 55
19 67
19 28
19 32
19 33
19 61
20 21
20 22
20 23
20 24
20 25
21 22
21 23
21 24
21 25
21 35
21 46
21 47
21 48
21 56
21 57
21 58
21 26
21 66
22 23
22 24
22 25
22 27
22 36
22 37
22 47
22 53
22 63
23 24
23 25
24 25
24 37
24 38
24 39
24 55
24 67
25 39
25 50
25 51
25 33
25 44
25 45
25 49
26 27
26 28
26 29
26 30
26 32
26 37
26 41
26 65
26 47
26 66
27 28
27 29
27 30
27 36
27 37
27 49
27 51
27 66
28 29
28 30
28 35
28 50
28 53
28 69
28 32
28 33
28 61
29 30
29 41
29 43
29 44
29 45
29 40
29 50
29 66
30 49
30 51
30 66
31 32
31 33
31 34
31 35
31 41
31 46
31 48
31 49
31 44
32 33
32 34
32 35
32 37
32 41
32 65
32 44
32 57
32 59
32 68
32 61
33 34
33 35
33 40
33 41
33 42
33 44
33 45
33 49
33 61
34 35
34 41
34 46
34 48
34 49
35 40
35 41
35 42
35 46
35 47
35 48
35 50
35 53
35 69
36 37
36 42
36 52
36 53
37 38
37 39
37 41
37 65
38 39
39 50
39 51
40 41
40 42
40 50
40 66
41 42
41 43
41 44
41 45
41 46
41 48
41 49
41 65
42 52
42 53
43 44
43 45
44 45
44 48
44 53
44 57
44 58
44 64
44 49
44 59
44 68
45 49
46 47
46 48
46 49
47 48
47 53
47 63
47 66
48 49
49 51
49 66
50 51
50 53
50 69
50 66
51 66
52 53
52 54
52 55
53 63
53 57
53 58
53 64
53 69
54 55
55 67
56 57
56 58
57 58
57 64
57 59
57 68
58 59
58 60
58 61
58 62
58 64
59 60
59 61
59 62
59 68
60 61
60 62
61 62
